NAME : rc202.0.4962190.tour
COMMENT : Length = 4962190
COMMENT : Found by LKH [Keld Helsgaun] Tue May  2 05:20:28 2017
TYPE : TOUR
DIMENSION : 26
TOUR_SECTION
1
21
22
25
20
15
8
4
2
3
5
7
6
14
16
17
18
11
10
9
12
13
26
23
24
19
-1
EOF
